% Logging successfully configured
%%%mzn-stat: initTime=0.0078372
%%%mzn-stat: objective=625
%%%mzn-stat: nodes=228
%%%mzn-stat: restarts=0
%%%mzn-stat: peakDepth=228
%%%mzn-stat: solveTime=0.000296834
%%%mzn-stat: variables=508
%%%mzn-stat: propagators=548
%%%mzn-stat: failures=0
%%%mzn-stat: propagations=1737
%%%mzn-stat: nogoods=0
%%%mzn-stat: numAtomicConstraintsPropagated=0
%%%mzn-stat: circuitNumber191PropagationsThatFoundConflict=0
%%%mzn-stat: circuitNumber191TotalFixedEdgesAtConflict=0
%%%mzn-stat: circuitNumber191NumberOfConflicts=0
%%%mzn-stat: circuitNumber191PropagationsThatPruned=1
%%%mzn-stat: circuitNumber191PropagationsTotal=18
%%%mzn-stat: AverageConflictSize=0
%%%mzn-stat: NumUnitNogoodsLearned=0
%%%mzn-stat: AverageLearnedNogoodLength=0
%%%mzn-stat: AverageBacktrackAmount=0
%%%mzn-stat: AverageLbd=0
%%%mzn-stat: 2AutonomousSearchNumBackupCalled=211
%%%mzn-stat: 2AutonomousSearchNumPredicatesRemoved=0
%%%mzn-stat: 2AutonomousSearchNumCalls=212
%%%mzn-stat: 2AutonomousSearchNumPredicatesAdded=0
%%%mzn-stat: 2AutonomousSearchAverageSizeOfHeap=0
%%%mzn-stat: 2AutonomousSearchNumAssignedPredicatesEncountered=0
%%%mzn-stat-end
maxleg = 625;
succ = array1d(1..20,[2, 4, 1, 6, 3, 9, 5, 7, 10, 11, 12, 14, 8, 15, 16, 19, 20, 17, 18, 13]);
% time elapsed: 8.69 s
----------
%%%mzn-stat: initTime=0.0078372
%%%mzn-stat: objective=602
%%%mzn-stat: nodes=455
%%%mzn-stat: restarts=0
%%%mzn-stat: peakDepth=228
%%%mzn-stat: solveTime=0.000499736
%%%mzn-stat: variables=508
%%%mzn-stat: propagators=548
%%%mzn-stat: failures=0
%%%mzn-stat: propagations=2674
%%%mzn-stat: nogoods=0
%%%mzn-stat: numAtomicConstraintsPropagated=0
%%%mzn-stat: circuitNumber191PropagationsThatFoundConflict=0
%%%mzn-stat: circuitNumber191TotalFixedEdgesAtConflict=0
%%%mzn-stat: circuitNumber191NumberOfConflicts=0
%%%mzn-stat: circuitNumber191PropagationsThatPruned=2
%%%mzn-stat: circuitNumber191PropagationsTotal=34
%%%mzn-stat: AverageConflictSize=0
%%%mzn-stat: NumUnitNogoodsLearned=0
%%%mzn-stat: AverageLearnedNogoodLength=0
%%%mzn-stat: AverageBacktrackAmount=0
%%%mzn-stat: AverageLbd=0
%%%mzn-stat: 2AutonomousSearchNumBackupCalled=422
%%%mzn-stat: 2AutonomousSearchNumPredicatesRemoved=0
%%%mzn-stat: 2AutonomousSearchNumCalls=424
%%%mzn-stat: 2AutonomousSearchNumPredicatesAdded=0
%%%mzn-stat: 2AutonomousSearchAverageSizeOfHeap=0
%%%mzn-stat: 2AutonomousSearchNumAssignedPredicatesEncountered=0
%%%mzn-stat-end
maxleg = 602;
succ = array1d(1..20,[2, 4, 1, 7, 3, 9, 8, 10, 11, 12, 14, 6, 5, 15, 16, 19, 20, 17, 18, 13]);
% time elapsed: 8.69 s
----------
%%%mzn-stat: initTime=0.0078372
%%%mzn-stat: objective=588
%%%mzn-stat: nodes=686
%%%mzn-stat: restarts=0
%%%mzn-stat: peakDepth=232
%%%mzn-stat: solveTime=0.000696843
%%%mzn-stat: variables=508
%%%mzn-stat: propagators=548
%%%mzn-stat: failures=0
%%%mzn-stat: propagations=3619
%%%mzn-stat: nogoods=0
%%%mzn-stat: numAtomicConstraintsPropagated=0
%%%mzn-stat: circuitNumber191PropagationsThatFoundConflict=0
%%%mzn-stat: circuitNumber191TotalFixedEdgesAtConflict=0
%%%mzn-stat: circuitNumber191NumberOfConflicts=0
%%%mzn-stat: circuitNumber191PropagationsThatPruned=3
%%%mzn-stat: circuitNumber191PropagationsTotal=50
%%%mzn-stat: AverageConflictSize=0
%%%mzn-stat: NumUnitNogoodsLearned=0
%%%mzn-stat: AverageLearnedNogoodLength=0
%%%mzn-stat: AverageBacktrackAmount=0
%%%mzn-stat: AverageLbd=0
%%%mzn-stat: 2AutonomousSearchNumBackupCalled=637
%%%mzn-stat: 2AutonomousSearchNumPredicatesRemoved=0
%%%mzn-stat: 2AutonomousSearchNumCalls=640
%%%mzn-stat: 2AutonomousSearchNumPredicatesAdded=0
%%%mzn-stat: 2AutonomousSearchAverageSizeOfHeap=0
%%%mzn-stat: 2AutonomousSearchNumAssignedPredicatesEncountered=0
%%%mzn-stat-end
maxleg = 588;
succ = array1d(1..20,[2, 4, 1, 7, 3, 9, 8, 10, 11, 12, 15, 6, 5, 16, 14, 19, 20, 17, 18, 13]);
% time elapsed: 8.69 s
----------
%%%mzn-stat: initTime=0.0078372
%%%mzn-stat: objective=561
%%%mzn-stat: nodes=897
%%%mzn-stat: restarts=0
%%%mzn-stat: peakDepth=232
%%%mzn-stat: solveTime=0.000889703
%%%mzn-stat: variables=508
%%%mzn-stat: propagators=548
%%%mzn-stat: failures=0
%%%mzn-stat: propagations=4578
%%%mzn-stat: nogoods=0
%%%mzn-stat: numAtomicConstraintsPropagated=0
%%%mzn-stat: circuitNumber191PropagationsThatFoundConflict=0
%%%mzn-stat: circuitNumber191TotalFixedEdgesAtConflict=0
%%%mzn-stat: circuitNumber191NumberOfConflicts=0
%%%mzn-stat: circuitNumber191PropagationsThatPruned=4
%%%mzn-stat: circuitNumber191PropagationsTotal=66
%%%mzn-stat: AverageConflictSize=0
%%%mzn-stat: NumUnitNogoodsLearned=0
%%%mzn-stat: AverageLearnedNogoodLength=0
%%%mzn-stat: AverageBacktrackAmount=0
%%%mzn-stat: AverageLbd=0
%%%mzn-stat: 2AutonomousSearchNumBackupCalled=832
%%%mzn-stat: 2AutonomousSearchNumPredicatesRemoved=0
%%%mzn-stat: 2AutonomousSearchNumCalls=836
%%%mzn-stat: 2AutonomousSearchNumPredicatesAdded=0
%%%mzn-stat: 2AutonomousSearchAverageSizeOfHeap=0
%%%mzn-stat: 2AutonomousSearchNumAssignedPredicatesEncountered=0
%%%mzn-stat-end
maxleg = 561;
succ = array1d(1..20,[2, 4, 1, 7, 3, 11, 8, 9, 10, 12, 15, 6, 5, 16, 14, 19, 20, 17, 18, 13]);
% time elapsed: 8.69 s
----------
%%%mzn-stat: initTime=0.0078372
%%%mzn-stat: objective=530
%%%mzn-stat: nodes=1104
%%%mzn-stat: restarts=0
%%%mzn-stat: peakDepth=232
%%%mzn-stat: solveTime=0.001085092
%%%mzn-stat: variables=508
%%%mzn-stat: propagators=548
%%%mzn-stat: failures=0
%%%mzn-stat: propagations=5536
%%%mzn-stat: nogoods=0
%%%mzn-stat: numAtomicConstraintsPropagated=0
%%%mzn-stat: circuitNumber191PropagationsThatFoundConflict=0
%%%mzn-stat: circuitNumber191TotalFixedEdgesAtConflict=0
%%%mzn-stat: circuitNumber191NumberOfConflicts=0
%%%mzn-stat: circuitNumber191PropagationsThatPruned=4
%%%mzn-stat: circuitNumber191PropagationsTotal=79
%%%mzn-stat: AverageConflictSize=0
%%%mzn-stat: NumUnitNogoodsLearned=0
%%%mzn-stat: AverageLearnedNogoodLength=0
%%%mzn-stat: AverageBacktrackAmount=0
%%%mzn-stat: AverageLbd=0
%%%mzn-stat: 2AutonomousSearchNumBackupCalled=1025
%%%mzn-stat: 2AutonomousSearchNumPredicatesRemoved=0
%%%mzn-stat: 2AutonomousSearchNumCalls=1030
%%%mzn-stat: 2AutonomousSearchNumPredicatesAdded=0
%%%mzn-stat: 2AutonomousSearchAverageSizeOfHeap=0
%%%mzn-stat: 2AutonomousSearchNumAssignedPredicatesEncountered=0
%%%mzn-stat-end
maxleg = 530;
succ = array1d(1..20,[2, 4, 1, 7, 3, 11, 8, 9, 10, 12, 15, 6, 5, 16, 17, 20, 18, 19, 14, 13]);
% time elapsed: 8.69 s
----------
%%%mzn-stat: initTime=0.0078372
%%%mzn-stat: objective=519
%%%mzn-stat: nodes=1300
%%%mzn-stat: restarts=0
%%%mzn-stat: peakDepth=232
%%%mzn-stat: solveTime=0.00152021
%%%mzn-stat: variables=508
%%%mzn-stat: propagators=548
%%%mzn-stat: failures=3
%%%mzn-stat: propagations=6918
%%%mzn-stat: nogoods=3
%%%mzn-stat: numAtomicConstraintsPropagated=0
%%%mzn-stat: circuitNumber191PropagationsThatFoundConflict=1
%%%mzn-stat: circuitNumber191TotalFixedEdgesAtConflict=20
%%%mzn-stat: circuitNumber191NumberOfConflicts=1
%%%mzn-stat: circuitNumber191PropagationsThatPruned=6
%%%mzn-stat: circuitNumber191PropagationsTotal=99
%%%mzn-stat: AverageConflictSize=6
%%%mzn-stat: NumUnitNogoodsLearned=0
%%%mzn-stat: AverageLearnedNogoodLength=12.333333333333334
%%%mzn-stat: AverageBacktrackAmount=0
%%%mzn-stat: AverageLbd=7
%%%mzn-stat: 2AutonomousSearchNumBackupCalled=1201
%%%mzn-stat: 2AutonomousSearchNumPredicatesRemoved=0
%%%mzn-stat: 2AutonomousSearchNumCalls=1207
%%%mzn-stat: 2AutonomousSearchNumPredicatesAdded=101
%%%mzn-stat: 2AutonomousSearchAverageSizeOfHeap=0.08367854183927093
%%%mzn-stat: 2AutonomousSearchNumAssignedPredicatesEncountered=101
%%%mzn-stat-end
maxleg = 519;
succ = array1d(1..20,[2, 4, 1, 7, 3, 11, 8, 9, 10, 14, 12, 16, 5, 19, 17, 20, 18, 6, 15, 13]);
% time elapsed: 8.69 s
----------
%%%mzn-stat: initTime=0.0078372
%%%mzn-stat: objective=490
%%%mzn-stat: nodes=1501
%%%mzn-stat: restarts=0
%%%mzn-stat: peakDepth=232
%%%mzn-stat: solveTime=0.008202671
%%%mzn-stat: variables=508
%%%mzn-stat: propagators=548
%%%mzn-stat: failures=20
%%%mzn-stat: propagations=10879
%%%mzn-stat: nogoods=20
%%%mzn-stat: numAtomicConstraintsPropagated=0
%%%mzn-stat: circuitNumber191PropagationsThatFoundConflict=15
%%%mzn-stat: circuitNumber191TotalFixedEdgesAtConflict=300
%%%mzn-stat: circuitNumber191NumberOfConflicts=15
%%%mzn-stat: circuitNumber191PropagationsThatPruned=13
%%%mzn-stat: circuitNumber191PropagationsTotal=142
%%%mzn-stat: AverageConflictSize=12.15
%%%mzn-stat: NumUnitNogoodsLearned=0
%%%mzn-stat: AverageLearnedNogoodLength=22
%%%mzn-stat: AverageBacktrackAmount=0
%%%mzn-stat: AverageLbd=12.45
%%%mzn-stat: 2AutonomousSearchNumBackupCalled=1369
%%%mzn-stat: 2AutonomousSearchNumPredicatesRemoved=0
%%%mzn-stat: 2AutonomousSearchNumCalls=1376
%%%mzn-stat: 2AutonomousSearchNumPredicatesAdded=351
%%%mzn-stat: 2AutonomousSearchAverageSizeOfHeap=0.2747093023255814
%%%mzn-stat: 2AutonomousSearchNumAssignedPredicatesEncountered=378
%%%mzn-stat-end
maxleg = 490;
succ = array1d(1..20,[2, 4, 1, 7, 3, 11, 8, 9, 10, 14, 15, 17, 5, 16, 20, 19, 18, 6, 12, 13]);
% time elapsed: 8.69 s
----------
%%%mzn-stat: initTime=0.0078372
%%%mzn-stat: objective=489
%%%mzn-stat: nodes=1714
%%%mzn-stat: restarts=0
%%%mzn-stat: peakDepth=232
%%%mzn-stat: solveTime=0.010363286
%%%mzn-stat: variables=508
%%%mzn-stat: propagators=548
%%%mzn-stat: failures=45
%%%mzn-stat: propagations=15567
%%%mzn-stat: nogoods=45
%%%mzn-stat: numAtomicConstraintsPropagated=0
%%%mzn-stat: circuitNumber191PropagationsThatFoundConflict=26
%%%mzn-stat: circuitNumber191TotalFixedEdgesAtConflict=515
%%%mzn-stat: circuitNumber191NumberOfConflicts=26
%%%mzn-stat: circuitNumber191PropagationsThatPruned=21
%%%mzn-stat: circuitNumber191PropagationsTotal=192
%%%mzn-stat: AverageConflictSize=9.8
%%%mzn-stat: NumUnitNogoodsLearned=0
%%%mzn-stat: AverageLearnedNogoodLength=21.022222222222222
%%%mzn-stat: AverageBacktrackAmount=0
%%%mzn-stat: AverageLbd=10.533333333333333
%%%mzn-stat: 2AutonomousSearchNumBackupCalled=1542
%%%mzn-stat: 2AutonomousSearchNumPredicatesRemoved=0
%%%mzn-stat: 2AutonomousSearchNumCalls=1550
%%%mzn-stat: 2AutonomousSearchNumPredicatesAdded=624
%%%mzn-stat: 2AutonomousSearchAverageSizeOfHeap=0.46
%%%mzn-stat: 2AutonomousSearchNumAssignedPredicatesEncountered=713
%%%mzn-stat-end
maxleg = 489;
succ = array1d(1..20,[2, 4, 1, 7, 8, 11, 5, 9, 10, 14, 15, 17, 3, 16, 20, 19, 18, 6, 12, 13]);
% time elapsed: 8.69 s
----------
%%%mzn-stat: initTime=0.0078372
%%%mzn-stat: objective=487
%%%mzn-stat: nodes=2171
%%%mzn-stat: restarts=0
%%%mzn-stat: peakDepth=232
%%%mzn-stat: solveTime=0.037235655
%%%mzn-stat: variables=508
%%%mzn-stat: propagators=548
%%%mzn-stat: failures=316
%%%mzn-stat: propagations=56299
%%%mzn-stat: nogoods=316
%%%mzn-stat: numAtomicConstraintsPropagated=0
%%%mzn-stat: circuitNumber191PropagationsThatFoundConflict=155
%%%mzn-stat: circuitNumber191TotalFixedEdgesAtConflict=2817
%%%mzn-stat: circuitNumber191NumberOfConflicts=155
%%%mzn-stat: circuitNumber191PropagationsThatPruned=202
%%%mzn-stat: circuitNumber191PropagationsTotal=718
%%%mzn-stat: AverageConflictSize=9.183544303797468
%%%mzn-stat: NumUnitNogoodsLearned=0
%%%mzn-stat: AverageLearnedNogoodLength=21.914556962025316
%%%mzn-stat: AverageBacktrackAmount=0
%%%mzn-stat: AverageLbd=10.085443037974683
%%%mzn-stat: 2AutonomousSearchNumBackupCalled=1692
%%%mzn-stat: 2AutonomousSearchNumPredicatesRemoved=0
%%%mzn-stat: 2AutonomousSearchNumCalls=1701
%%%mzn-stat: 2AutonomousSearchNumPredicatesAdded=973
%%%mzn-stat: 2AutonomousSearchAverageSizeOfHeap=0.6995884773662552
%%%mzn-stat: 2AutonomousSearchNumAssignedPredicatesEncountered=1190
%%%mzn-stat-end
maxleg = 487;
succ = array1d(1..20,[2, 4, 7, 3, 8, 1, 5, 13, 10, 14, 6, 9, 20, 16, 17, 19, 18, 12, 11, 15]);
% time elapsed: 8.70 s
----------
%%%mzn-stat: initTime=0.0078372
%%%mzn-stat: objective=460
%%%mzn-stat: nodes=2325
%%%mzn-stat: restarts=0
%%%mzn-stat: peakDepth=232
%%%mzn-stat: solveTime=0.037800887
%%%mzn-stat: variables=508
%%%mzn-stat: propagators=548
%%%mzn-stat: failures=317
%%%mzn-stat: propagations=57420
%%%mzn-stat: nogoods=317
%%%mzn-stat: numAtomicConstraintsPropagated=0
%%%mzn-stat: circuitNumber191PropagationsThatFoundConflict=156
%%%mzn-stat: circuitNumber191TotalFixedEdgesAtConflict=2837
%%%mzn-stat: circuitNumber191NumberOfConflicts=156
%%%mzn-stat: circuitNumber191PropagationsThatPruned=203
%%%mzn-stat: circuitNumber191PropagationsTotal=734
%%%mzn-stat: AverageConflictSize=9.211356466876971
%%%mzn-stat: NumUnitNogoodsLearned=0
%%%mzn-stat: AverageLearnedNogoodLength=21.91167192429022
%%%mzn-stat: AverageBacktrackAmount=0
%%%mzn-stat: AverageLbd=10.100946372239747
%%%mzn-stat: 2AutonomousSearchNumBackupCalled=1830
%%%mzn-stat: 2AutonomousSearchNumPredicatesRemoved=0
%%%mzn-stat: 2AutonomousSearchNumCalls=1840
%%%mzn-stat: 2AutonomousSearchNumPredicatesAdded=1006
%%%mzn-stat: 2AutonomousSearchAverageSizeOfHeap=0.9065217391304348
%%%mzn-stat: 2AutonomousSearchNumAssignedPredicatesEncountered=1668
%%%mzn-stat-end
maxleg = 460;
succ = array1d(1..20,[2, 4, 7, 3, 8, 1, 5, 13, 10, 14, 9, 6, 20, 16, 17, 19, 18, 11, 12, 15]);
% time elapsed: 8.70 s
----------
%%%mzn-stat: initTime=0.0078372
%%%mzn-stat: objective=410
%%%mzn-stat: nodes=2461
%%%mzn-stat: restarts=0
%%%mzn-stat: peakDepth=232
%%%mzn-stat: solveTime=0.038168428
%%%mzn-stat: variables=508
%%%mzn-stat: propagators=548
%%%mzn-stat: failures=317
%%%mzn-stat: propagations=58436
%%%mzn-stat: nogoods=317
%%%mzn-stat: numAtomicConstraintsPropagated=0
%%%mzn-stat: circuitNumber191PropagationsThatFoundConflict=156
%%%mzn-stat: circuitNumber191TotalFixedEdgesAtConflict=2837
%%%mzn-stat: circuitNumber191NumberOfConflicts=156
%%%mzn-stat: circuitNumber191PropagationsThatPruned=204
%%%mzn-stat: circuitNumber191PropagationsTotal=748
%%%mzn-stat: AverageConflictSize=9.211356466876971
%%%mzn-stat: NumUnitNogoodsLearned=0
%%%mzn-stat: AverageLearnedNogoodLength=21.91167192429022
%%%mzn-stat: AverageBacktrackAmount=0
%%%mzn-stat: AverageLbd=10.100946372239747
%%%mzn-stat: 2AutonomousSearchNumBackupCalled=1952
%%%mzn-stat: 2AutonomousSearchNumPredicatesRemoved=0
%%%mzn-stat: 2AutonomousSearchNumCalls=1963
%%%mzn-stat: 2AutonomousSearchNumPredicatesAdded=1006
%%%mzn-stat: 2AutonomousSearchAverageSizeOfHeap=1.0932246561385635
%%%mzn-stat: 2AutonomousSearchNumAssignedPredicatesEncountered=2146
%%%mzn-stat-end
maxleg = 410;
succ = array1d(1..20,[2, 4, 7, 3, 8, 12, 5, 13, 10, 14, 1, 9, 20, 16, 17, 19, 18, 6, 11, 15]);
% time elapsed: 8.70 s
----------
%%%mzn-stat: initTime=0.0078372
%%%mzn-stat: objective=406
%%%mzn-stat: nodes=2582
%%%mzn-stat: restarts=0
%%%mzn-stat: peakDepth=232
%%%mzn-stat: solveTime=0.038514075
%%%mzn-stat: variables=508
%%%mzn-stat: propagators=548
%%%mzn-stat: failures=317
%%%mzn-stat: propagations=59465
%%%mzn-stat: nogoods=317
%%%mzn-stat: numAtomicConstraintsPropagated=0
%%%mzn-stat: circuitNumber191PropagationsThatFoundConflict=156
%%%mzn-stat: circuitNumber191TotalFixedEdgesAtConflict=2837
%%%mzn-stat: circuitNumber191NumberOfConflicts=156
%%%mzn-stat: circuitNumber191PropagationsThatPruned=205
%%%mzn-stat: circuitNumber191PropagationsTotal=761
%%%mzn-stat: AverageConflictSize=9.211356466876971
%%%mzn-stat: NumUnitNogoodsLearned=0
%%%mzn-stat: AverageLearnedNogoodLength=21.91167192429022
%%%mzn-stat: AverageBacktrackAmount=0
%%%mzn-stat: AverageLbd=10.100946372239747
%%%mzn-stat: 2AutonomousSearchNumBackupCalled=2060
%%%mzn-stat: 2AutonomousSearchNumPredicatesRemoved=0
%%%mzn-stat: 2AutonomousSearchNumCalls=2072
%%%mzn-stat: 2AutonomousSearchNumPredicatesAdded=1006
%%%mzn-stat: 2AutonomousSearchAverageSizeOfHeap=1.2664092664092663
%%%mzn-stat: 2AutonomousSearchNumAssignedPredicatesEncountered=2624
%%%mzn-stat-end
maxleg = 406;
succ = array1d(1..20,[2, 4, 7, 3, 8, 12, 5, 13, 10, 14, 1, 9, 20, 19, 17, 11, 18, 6, 16, 15]);
% time elapsed: 8.70 s
----------
%%%mzn-stat: initTime=0.0078372
%%%mzn-stat: objective=368
%%%mzn-stat: nodes=2737
%%%mzn-stat: restarts=0
%%%mzn-stat: peakDepth=232
%%%mzn-stat: solveTime=0.042671251
%%%mzn-stat: variables=508
%%%mzn-stat: propagators=548
%%%mzn-stat: failures=351
%%%mzn-stat: propagations=64982
%%%mzn-stat: nogoods=351
%%%mzn-stat: numAtomicConstraintsPropagated=0
%%%mzn-stat: circuitNumber191PropagationsThatFoundConflict=167
%%%mzn-stat: circuitNumber191TotalFixedEdgesAtConflict=3036
%%%mzn-stat: circuitNumber191NumberOfConflicts=167
%%%mzn-stat: circuitNumber191PropagationsThatPruned=217
%%%mzn-stat: circuitNumber191PropagationsTotal=818
%%%mzn-stat: AverageConflictSize=9.284900284900285
%%%mzn-stat: NumUnitNogoodsLearned=0
%%%mzn-stat: AverageLearnedNogoodLength=22.86039886039886
%%%mzn-stat: AverageBacktrackAmount=0
%%%mzn-stat: AverageLbd=10.062678062678062
%%%mzn-stat: 2AutonomousSearchNumBackupCalled=2164
%%%mzn-stat: 2AutonomousSearchNumPredicatesRemoved=0
%%%mzn-stat: 2AutonomousSearchNumCalls=2177
%%%mzn-stat: 2AutonomousSearchNumPredicatesAdded=1319
%%%mzn-stat: 2AutonomousSearchAverageSizeOfHeap=1.444648598989435
%%%mzn-stat: 2AutonomousSearchNumAssignedPredicatesEncountered=3145
%%%mzn-stat-end
maxleg = 368;
succ = array1d(1..20,[2, 4, 7, 3, 8, 12, 5, 13, 11, 9, 1, 19, 20, 10, 17, 14, 18, 6, 16, 15]);
% time elapsed: 8.71 s
----------
==========
% time elapsed: 14.27 s
%%%mzn-stat: initTime=0.0078372
%%%mzn-stat: objective=368
%%%mzn-stat: nodes=28550
%%%mzn-stat: restarts=0
%%%mzn-stat: peakDepth=232
%%%mzn-stat: solveTime=5.603260957
%%%mzn-stat: variables=508
%%%mzn-stat: propagators=548
%%%mzn-stat: failures=25442
%%%mzn-stat: propagations=4035363
%%%mzn-stat: nogoods=25442
%%%mzn-stat: numAtomicConstraintsPropagated=0
%%%mzn-stat: circuitNumber191PropagationsThatFoundConflict=1017
%%%mzn-stat: circuitNumber191TotalFixedEdgesAtConflict=13463
%%%mzn-stat: circuitNumber191NumberOfConflicts=1017
%%%mzn-stat: circuitNumber191PropagationsThatPruned=7447
%%%mzn-stat: circuitNumber191PropagationsTotal=28677
%%%mzn-stat: AverageConflictSize=16.84521657102429
%%%mzn-stat: NumUnitNogoodsLearned=1
%%%mzn-stat: AverageLearnedNogoodLength=57.802924298404214
%%%mzn-stat: AverageBacktrackAmount=0
%%%mzn-stat: AverageLbd=7.142363021775018
%%%mzn-stat: 2AutonomousSearchNumBackupCalled=2164
%%%mzn-stat: 2AutonomousSearchNumPredicatesRemoved=0
%%%mzn-stat: 2AutonomousSearchNumCalls=2177
%%%mzn-stat: 2AutonomousSearchNumPredicatesAdded=2437
%%%mzn-stat: 2AutonomousSearchAverageSizeOfHeap=1.444648598989435
%%%mzn-stat: 2AutonomousSearchNumAssignedPredicatesEncountered=3145
%%%mzn-stat-end
